decision_x1=[0,4];
decision_x2=[0,4];
decision_x3=[0,4];
decision_x4=[0,4];
random_y1=[0,4];
random_y2=[0,4];
constraint_x3_x1=[
0,1,1.5|
0,2,1.6|
0,3,2|
0,4,2.8|
1,0,1.9|
1,2,1.9|
1,3,5.9|
1,4,6.8|
2,0,9.9|
2,1,6.5|
2,3,9.7|
2,4,5.6|
3,0,9.9|
3,1,6.1|
3,2,7.6|
3,4,1.4|
4,0,1.4|
4,1,8.7|
4,2,9.7|
4,3,5.8|
];
constraint_x4_x1=[
0,1,2.3|
0,2,5.2|
0,3,5.9|
0,4,0.87|
1,0,3.3|
1,2,6.4|
1,3,5.6|
1,4,6.7|
2,0,4.6|
2,1,5.8|
2,3,6.1|
2,4,6.2|
3,0,9.2|
3,1,4.3|
3,2,3.3|
3,4,1.2|
4,0,2.5|
4,1,6.2|
4,2,8.2|
4,3,6.9|
];
constraint_x4_x2=[
0,1,4.6|
0,2,3.5|
0,3,2.3|
0,4,6.5|
1,0,2.4|
1,2,8.3|
1,3,6.2|
1,4,3.9|
2,0,8.5|
2,1,4.8|
2,3,6.4|
2,4,7.1|
3,0,8.9|
3,1,7.7|
3,2,8.4|
3,4,7.6|
4,0,1.1|
4,1,4.9|
4,2,8.9|
4,3,8.9|
];
constraint_x1_y1=[
0,0,6.2|
0,1,9|
0,2,2|
0,3,6.4|
0,4,2.6|
1,0,8.8|
1,1,0.33|
1,2,2.4|
1,3,7.3|
1,4,2|
2,0,3.9|
2,1,2.1|
2,2,5.3|
2,3,0.32|
2,4,2.3|
3,0,9.3|
3,1,8.5|
3,2,1.5|
3,3,0.79|
3,4,0.64|
4,0,5.6|
4,1,4.6|
4,2,2.5|
4,3,3|
4,4,7.8|
];
constraint_x2_y2=[
0,0,6.2|
0,1,8.7|
0,2,2.5|
0,3,1.3|
0,4,7.8|
1,0,4.9|
1,1,6|
1,2,8.3|
1,3,0.77|
1,4,1.1|
2,0,4.1|
2,1,7.6|
2,2,5.3|
2,3,7|
2,4,1.2|
3,0,2.8|
3,1,0.28|
3,2,9.3|
3,3,5.6|
3,4,8.4|
4,0,1.5|
4,1,4.8|
4,2,4.5|
4,3,8.4|
4,4,5.6|
];
initial_distribution_y1=[0.36,0.084,0.19,0.05,0.32];
initial_distribution_y2=[0.2,0.32,0.053,0.062,0.37];
transition_y1=[
0.32,0.37,0.14,0.087,0.087|
0.28,0.16,0.32,0.044,0.19|
0.34,0.12,0.17,0.14,0.23|
0.21,0.21,0.18,0.28,0.12|
0.15,0.23,0.11,0.34,0.17|
];
transition_y2=[
0.072,0.2,0.21,0.21,0.32|
0.18,0.29,0.25,0.17,0.12|
0.16,0.31,0.16,0.068,0.3|
0.48,0.0087,0.019,0.18,0.32|
0.41,0.098,0.14,0.29,0.059|
];
